decision_x1=[0,4];
decision_x2=[0,4];
decision_x3=[0,4];
decision_x4=[0,4];
decision_x5=[0,4];
decision_x6=[0,4];
decision_x7=[0,4];
decision_x8=[0,4];
decision_x9=[0,4];
decision_x10=[0,4];
random_y1=[0,4];
random_y2=[0,4];
random_y3=[0,4];
random_y4=[0,4];
random_y5=[0,4];
constraint_x3_x1=[
0,1,2.1|
0,2,7.6|
0,3,7.2|
0,4,3.3|
1,0,9.7|
1,2,5|
1,3,0.39|
1,4,2.6|
2,0,9.5|
2,1,6|
2,3,1.5|
2,4,0.3|
3,0,6.8|
3,1,3.7|
3,2,4.6|
3,4,5.3|
4,0,9.3|
4,1,4.7|
4,2,7.8|
4,3,7.3|
];
constraint_x3_x2=[
0,1,4.1|
0,2,6.6|
0,3,0.53|
0,4,8.6|
1,0,3.8|
1,2,7.8|
1,3,3.4|
1,4,4.6|
2,0,4.1|
2,1,0.26|
2,3,8|
2,4,7.4|
3,0,9.6|
3,1,0.52|
3,2,6.3|
3,4,4.1|
4,0,0.47|
4,1,4.1|
4,2,1.5|
4,3,0.32|
];
constraint_x4_x1=[
0,1,9.6|
0,2,0.51|
0,3,9.9|
0,4,6.4|
1,0,3.4|
1,2,2.1|
1,3,0.32|
1,4,4.3|
2,0,1.3|
2,1,9|
2,3,9.5|
2,4,8.4|
3,0,6.3|
3,1,0.75|
3,2,4.6|
3,4,7.6|
4,0,2.6|
4,1,0.11|
4,2,1|
4,3,4.5|
];
constraint_x4_x3=[
0,1,4.3|
0,2,8.9|
0,3,4.9|
0,4,9.5|
1,0,5.2|
1,2,8.3|
1,3,4.9|
1,4,6.6|
2,0,0.15|
2,1,6.7|
2,3,8.8|
2,4,0.62|
3,0,9.6|
3,1,6.1|
3,2,2|
3,4,3|
4,0,0.83|
4,1,9.5|
4,2,3.9|
4,3,6.7|
];
constraint_x5_x2=[
0,1,4.5|
0,2,6.7|
0,3,4.9|
0,4,5.6|
1,0,2.8|
1,2,0.57|
1,3,0.77|
1,4,7|
2,0,5.4|
2,1,5.3|
2,3,3.9|
2,4,6.7|
3,0,0.73|
3,1,5.3|
3,2,8.9|
3,4,9.2|
4,0,8.9|
4,1,7.1|
4,2,1.1|
4,3,2.8|
];
constraint_x5_x4=[
0,1,9.5|
0,2,1.7|
0,3,8|
0,4,6.6|
1,0,6.6|
1,2,6.3|
1,3,0.2|
1,4,5.1|
2,0,7.3|
2,1,0.38|
2,3,3.1|
2,4,0.91|
3,0,6.1|
3,1,4.3|
3,2,9.1|
3,4,5.7|
4,0,5.9|
4,1,6.7|
4,2,0.68|
4,3,8.9|
];
constraint_x6_x3=[
0,1,8.1|
0,2,6|
0,3,7.5|
0,4,9.7|
1,0,1.9|
1,2,7.1|
1,3,3.8|
1,4,9.6|
2,0,7.4|
2,1,8.4|
2,3,9.1|
2,4,6.1|
3,0,0.74|
3,1,8.6|
3,2,4|
3,4,1.3|
4,0,1.9|
4,1,2.6|
4,2,7.4|
4,3,1.3|
];
constraint_x6_x4=[
0,1,1.5|
0,2,9.4|
0,3,2.7|
0,4,3.2|
1,0,5|
1,2,5.2|
1,3,3.3|
1,4,5.4|
2,0,5.6|
2,1,6.6|
2,3,4.7|
2,4,0.19|
3,0,1.5|
3,1,6.5|
3,2,3.9|
3,4,5.1|
4,0,5.3|
4,1,9|
4,2,8.6|
4,3,4.8|
];
constraint_x7_x2=[
0,1,7.3|
0,2,2.9|
0,3,7.3|
0,4,9.9|
1,0,4.8|
1,2,2|
1,3,3.9|
1,4,2.8|
2,0,2.7|
2,1,1.4|
2,3,1.5|
2,4,1.8|
3,0,0.2|
3,1,4.4|
3,2,4.7|
3,4,6.7|
4,0,9.7|
4,1,9.6|
4,2,5.9|
4,3,9.6|
];
constraint_x7_x5=[
0,1,5.4|
0,2,1.2|
0,3,0.52|
0,4,2.7|
1,0,5.3|
1,2,7.3|
1,3,8.1|
1,4,2.6|
2,0,7.2|
2,1,1.8|
2,3,2.5|
2,4,4.8|
3,0,2.4|
3,1,3.2|
3,2,0.86|
3,4,2.2|
4,0,4.1|
4,1,7.9|
4,2,4.7|
4,3,1.9|
];
constraint_x7_x6=[
0,1,0.28|
0,2,6.7|
0,3,3.2|
0,4,4|
1,0,2.3|
1,2,3.1|
1,3,4.8|
1,4,3.8|
2,0,5.6|
2,1,8.3|
2,3,10|
2,4,1.9|
3,0,4|
3,1,6.6|
3,2,6.9|
3,4,0.86|
4,0,3.4|
4,1,9.6|
4,2,3.1|
4,3,8.1|
];
constraint_x8_x2=[
0,1,4.5|
0,2,4.6|
0,3,9|
0,4,1.7|
1,0,7.6|
1,2,6.9|
1,3,8.3|
1,4,8.4|
2,0,5.5|
2,1,4.4|
2,3,9.3|
2,4,3.5|
3,0,8.6|
3,1,1.6|
3,2,8.8|
3,4,6.3|
4,0,0.062|
4,1,9.8|
4,2,7.6|
4,3,4.6|
];
constraint_x8_x7=[
0,1,2.1|
0,2,1.1|
0,3,1.9|
0,4,9.6|
1,0,5.4|
1,2,5.2|
1,3,0.3|
1,4,3.6|
2,0,1.8|
2,1,2.5|
2,3,8.1|
2,4,9.2|
3,0,9|
3,1,1.4|
3,2,0.13|
3,4,9.8|
4,0,8.4|
4,1,2.2|
4,2,3.4|
4,3,1.6|
];
constraint_x9_x1=[
0,1,8.4|
0,2,7|
0,3,3.8|
0,4,3.2|
1,0,9.8|
1,2,6.1|
1,3,7.1|
1,4,2.2|
2,0,9.4|
2,1,0.14|
2,3,6.4|
2,4,7.2|
3,0,2.6|
3,1,7.7|
3,2,4.4|
3,4,7.8|
4,0,7.4|
4,1,5.8|
4,2,9.5|
4,3,6.6|
];
constraint_x9_x2=[
0,1,5.7|
0,2,0.81|
0,3,4.7|
0,4,8.6|
1,0,5.1|
1,2,5.7|
1,3,5.5|
1,4,1.1|
2,0,1.7|
2,1,1.8|
2,3,8.4|
2,4,7|
3,0,3.5|
3,1,4|
3,2,4.5|
3,4,4.3|
4,0,9.9|
4,1,7|
4,2,4.8|
4,3,6.3|
];
constraint_x9_x4=[
0,1,9.7|
0,2,3.6|
0,3,4.9|
0,4,7.8|
1,0,9.3|
1,2,3.7|
1,3,0.065|
1,4,9.2|
2,0,5.7|
2,1,0.029|
2,3,1.4|
2,4,3.2|
3,0,9.9|
3,1,2.7|
3,2,0.62|
3,4,0.15|
4,0,1.5|
4,1,5.5|
4,2,2.3|
4,3,4.4|
];
constraint_x9_x6=[
0,1,7.8|
0,2,0.45|
0,3,1.4|
0,4,3.9|
1,0,7.4|
1,2,3.3|
1,3,5.1|
1,4,6.5|
2,0,7.8|
2,1,1.3|
2,3,5.3|
2,4,6.5|
3,0,1.4|
3,1,1.5|
3,2,1.5|
3,4,0.27|
4,0,3.8|
4,1,1.2|
4,2,9.3|
4,3,0.49|
];
constraint_x9_x7=[
0,1,7.3|
0,2,0.69|
0,3,3.8|
0,4,0.85|
1,0,7.9|
1,2,2|
1,3,4|
1,4,0.77|
2,0,9.7|
2,1,7.8|
2,3,9|
2,4,8.5|
3,0,4.7|
3,1,8.7|
3,2,7.6|
3,4,6.8|
4,0,6.7|
4,1,0.32|
4,2,2.4|
4,3,3.8|
];
constraint_x10_x1=[
0,1,3|
0,2,2|
0,3,3.2|
0,4,8.5|
1,0,6.6|
1,2,6.5|
1,3,1.7|
1,4,9.4|
2,0,4.9|
2,1,7.9|
2,3,4.8|
2,4,5.8|
3,0,3|
3,1,2.4|
3,2,0.16|
3,4,8.5|
4,0,9|
4,1,8.9|
4,2,6.8|
4,3,7.7|
];
constraint_x10_x2=[
0,1,4.3|
0,2,9.8|
0,3,9.8|
0,4,7.4|
1,0,4.6|
1,2,7.3|
1,3,4.7|
1,4,6|
2,0,5.1|
2,1,5.6|
2,3,1.1|
2,4,6.8|
3,0,9.6|
3,1,7|
3,2,9.2|
3,4,7.5|
4,0,3.4|
4,1,0.18|
4,2,7.2|
4,3,7.3|
];
constraint_x10_x3=[
0,1,4.5|
0,2,9.2|
0,3,5.1|
0,4,3.4|
1,0,7.1|
1,2,9.6|
1,3,5.3|
1,4,7.1|
2,0,3|
2,1,9.5|
2,3,5.1|
2,4,5.8|
3,0,1.7|
3,1,8.9|
3,2,5.4|
3,4,0.66|
4,0,7.1|
4,1,0.9|
4,2,8.2|
4,3,7|
];
constraint_x10_x6=[
0,1,6.2|
0,2,9|
0,3,6.4|
0,4,8.3|
1,0,2.4|
1,2,7.5|
1,3,4.9|
1,4,0.65|
2,0,7.7|
2,1,5.9|
2,3,3.9|
2,4,9.6|
3,0,2.5|
3,1,1.7|
3,2,3.3|
3,4,1.8|
4,0,9.5|
4,1,4.4|
4,2,4.5|
4,3,3.5|
];
constraint_x10_x7=[
0,1,6.8|
0,2,7.2|
0,3,3.1|
0,4,3.4|
1,0,4.6|
1,2,1.5|
1,3,2.7|
1,4,9.5|
2,0,8.9|
2,1,6.3|
2,3,5.4|
2,4,2.6|
3,0,7|
3,1,7.6|
3,2,1.3|
3,4,8.7|
4,0,8.7|
4,1,1.2|
4,2,2|
4,3,9.7|
];
constraint_x1_y1=[
0,0,1.6|
0,1,3.1|
0,2,7.2|
0,3,9.8|
0,4,7.9|
1,0,2.1|
1,1,2.1|
1,2,0.18|
1,3,5.5|
1,4,9.1|
2,0,0.96|
2,1,3|
2,2,9.3|
2,3,8.9|
2,4,1.7|
3,0,2.5|
3,1,9.8|
3,2,3.9|
3,3,1.4|
3,4,2.4|
4,0,2.3|
4,1,4.6|
4,2,7.2|
4,3,4|
4,4,8.6|
];
constraint_x2_y2=[
0,0,7|
0,1,7.4|
0,2,8|
0,3,6.8|
0,4,8.3|
1,0,1.8|
1,1,3|
1,2,4.8|
1,3,3.4|
1,4,3|
2,0,8.7|
2,1,7.7|
2,2,5.4|
2,3,3.1|
2,4,3.1|
3,0,8|
3,1,2.3|
3,2,0.5|
3,3,7.2|
3,4,5.4|
4,0,8|
4,1,3.8|
4,2,8.8|
4,3,6.7|
4,4,0.77|
];
constraint_x3_y3=[
0,0,4|
0,1,8.5|
0,2,5.1|
0,3,2.7|
0,4,9.5|
1,0,0.95|
1,1,0.96|
1,2,2.2|
1,3,5.7|
1,4,6.2|
2,0,1|
2,1,7.1|
2,2,0.81|
2,3,0.66|
2,4,4.1|
3,0,6.6|
3,1,6.5|
3,2,6.9|
3,3,5|
3,4,7.2|
4,0,4.5|
4,1,5.5|
4,2,0.17|
4,3,4.1|
4,4,6.6|
];
constraint_x4_y4=[
0,0,3.8|
0,1,9|
0,2,3.9|
0,3,7.5|
0,4,6.2|
1,0,9.8|
1,1,5.9|
1,2,5.9|
1,3,2.7|
1,4,2|
2,0,1.8|
2,1,4|
2,2,0.29|
2,3,9.5|
2,4,7.4|
3,0,6.3|
3,1,3.3|
3,2,1.8|
3,3,3.2|
3,4,6.1|
4,0,7.1|
4,1,1.5|
4,2,8|
4,3,7.2|
4,4,7.6|
];
constraint_x5_y5=[
0,0,2.7|
0,1,4.6|
0,2,4.4|
0,3,8.6|
0,4,3.4|
1,0,3.6|
1,1,3.1|
1,2,3.9|
1,3,5.1|
1,4,7.2|
2,0,8.6|
2,1,2.1|
2,2,2.6|
2,3,7.4|
2,4,9.3|
3,0,3.6|
3,1,3.2|
3,2,9.2|
3,3,4.4|
3,4,5|
4,0,8.5|
4,1,3.7|
4,2,8.7|
4,3,1.6|
4,4,2.3|
];
initial_distribution_y1=[0.16,0.48,0.22,0.13,0.02];
initial_distribution_y2=[0.47,0.051,0.024,0.43,0.023];
initial_distribution_y3=[0.23,0.1,0.25,0.28,0.14];
initial_distribution_y4=[0.28,0.27,0.2,0.024,0.22];
initial_distribution_y5=[0.18,0.21,0.15,0.25,0.22];
transition_y1=[
0.21,0.3,0.068,0.31,0.12|
0.3,0.17,0.25,0.051,0.23|
0.22,0.091,0.16,0.35,0.17|
0.19,0.28,0.03,0.3,0.2|
0.21,0.15,0.37,0.022,0.25|
];
transition_y2=[
0.25,0.26,0.26,0.015,0.21|
0.15,0.2,0.34,0.024,0.28|
0.39,0.011,0.28,0.032,0.29|
0.35,0.033,0.064,0.2,0.35|
0.16,0.21,0.11,0.27,0.25|
];
transition_y3=[
0.12,0.046,0.28,0.3,0.26|
0.21,0.21,0.17,0.21,0.2|
0.41,0.0087,0.06,0.21,0.31|
0.13,0.27,0.3,0.22,0.077|
0.14,0.1,0.33,0.31,0.11|
];
transition_y4=[
0.26,0.31,0.24,0.18,0.015|
0.18,0.072,0.28,0.24,0.22|
0.23,0.061,0.064,0.11,0.53|
0.45,0.025,0.12,0.13,0.28|
0.09,0.12,0.21,0.39,0.18|
];
transition_y5=[
0.041,0.21,0.009,0.031,0.71|
0.27,0.25,0.16,0.3,0.019|
0.4,0.26,0.078,0.066,0.19|
0.36,0.31,0.041,0.055,0.23|
0.32,0.25,0.15,0.12,0.16|
];
